multiobj/instances/uniform/Ter.5.3.0.80.2.in
5 3
0 468 183 274 334 
468 0 166 343 169 
183 166 0 751 345 
274 343 751 0 397 
334 169 345 397 0 
0 74 685 489 74 
74 0 693 71 430 
685 693 0 993 708 
489 71 993 0 563 
74 430 708 563 0 
0 99 639 602 163 
99 0 587 269 472 
639 587 0 846 669 
602 269 846 0 644 
163 472 669 644 0 
0 212 567 496 378 
212 0 392 174 399 
567 392 0 930 736 
496 174 930 0 418 
378 399 736 418 0 
