multiobj/solutions/Ter.5.3.0.80.2.out
3 3
4 3 1 2 0 
2693230 3026988 2854274 
3 0 4 1 2 
2728874 2997434 3006096 
0 3 1 2 4 
2791028 3114414 2773942 
